(set-logic ALL)
(set-option :produce-models true)
(declare-sort BoundSet 0)
(declare-sort UnboundSet 0)
(set-option :finite-model-find true)
(declare-fun IsTan (BoundSet) Bool)
(declare-fun Chases (BoundSet BoundSet) Bool)
(declare-fun IsBlackAndWhite (BoundSet) Bool)
(declare-fun IsDog (BoundSet) Bool)
(declare-fun IsBall (BoundSet) Bool)
(assert (not (=> (exists ((b BoundSet)) (exists ((a BoundSet)) (and (IsTan a) (and (Chases a b) (IsBlackAndWhite b))))) (exists ((d BoundSet)) (exists ((c BoundSet)) (and (IsDog c) (and (IsBall d) (Chases c d))))))))
(check-sat)
(get-model)